param n := 120;
param c := 3000
param : V : p w :=
   0	  80	 373
   1	  84	 267
   2	  96	 360
   3	  32	 432
   4	  12	 279
   5	  35	 289
   6	  94	 462
   7	  17	 263
   8	  83	 275
   9	  28	 480
  10	  98	 254
  11	  23	 266
  12	  56	 488
  13	  48	 252
  14	  83	 260
  15	  29	 484
  16	  75	 255
  17	  11	 261
  18	  36	 414
  19	  25	 265
  20	  10	 321
  21	  95	 464
  22	  64	 266
  23	  38	 270
  24	  88	 370
  25	  60	 280
  26	  27	 350
  27	  12	 452
  28	  23	 272
  29	  40	 276
  30	  92	 446
  31	  35	 269
  32	  38	 285
  33	  54	 447
  34	  81	 267
  35	  26	 286
  36	   6	 430
  37	  20	 256
  38	  51	 314
  39	  50	 465
  40	   6	 263
  41	  11	 272
  42	  38	 473
  43	  38	 259
  44	  70	 268
  45	  68	 409
  46	  94	 288
  47	  59	 303
  48	  98	 499
  49	  22	 250
  50	  86	 251
  51	  61	 483
  52	  28	 252
  53	  21	 265
  54	  29	 384
  55	  60	 283
  56	  91	 333
  57	  56	 484
  58	  96	 251
  59	  51	 265
  60	  54	 481
  61	  49	 257
  62	  83	 262
  63	  74	 401
  64	  31	 298
  65	  96	 301
  66	  59	 396
  67	  75	 289
  68	  44	 315
  69	  35	 382
  70	  12	 250
  71	  77	 368
  72	  24	 410
  73	  64	 256
  74	  84	 334
  75	  97	 497
  76	   4	 250
  77	   5	 253
  78	  37	 359
  79	  82	 317
  80	  48	 324
  81	  70	 424
  82	  26	 251
  83	  96	 325
  84	  25	 357
  85	  60	 306
  86	  25	 337
  87	  85	 396
  88	  85	 254
  89	   1	 350
  90	  77	 469
  91	  60	 258
  92	  44	 273
  93	  57	 391
  94	  38	 274
  95	  93	 335
  96	  49	 426
  97	  68	 278
  98	   9	 296
  99	  82	 434
 100	  77	 268
 101	  97	 298
 102	  37	 491
 103	  77	 251
 104	  66	 258
 105	  83	 460
 106	  85	 261
 107	  84	 279
 108	  63	 403
 109	  73	 289
 110	  94	 308
 111	  27	 436
 112	  66	 266
 113	   2	 298
 114	  20	 350
 115	  48	 322
 116	   3	 328
 117	  17	 419
 118	  15	 269
 119	  14	 312
;

set E :=
   0	   4
   0	   5
   0	   6
   0	  13
   0	  15
   0	  18
   0	  19
   0	  20
   0	  21
   0	  22
   0	  23
   0	  24
   0	  27
   0	  29
   0	  30
   0	  31
   0	  32
   0	  35
   0	  36
   0	  40
   0	  41
   0	  45
   0	  48
   0	  49
   0	  54
   0	  55
   0	  61
   0	  64
   0	  65
   0	  66
   0	  68
   0	  69
   0	  70
   0	  75
   0	  78
   0	  79
   0	  82
   0	  84
   0	  85
   0	  86
   0	  88
   0	  89
   0	  90
   0	  92
   0	  94
   0	  95
   0	  96
   0	  97
   0	  99
   0	 102
   0	 103
   0	 106
   0	 112
   0	 113
   0	 114
   0	 118
   0	 119
   1	   2
   1	   3
   1	   6
   1	   7
   1	   8
   1	  10
   1	  12
   1	  14
   1	  16
   1	  18
   1	  20
   1	  24
   1	  25
   1	  26
   1	  27
   1	  28
   1	  29
   1	  32
   1	  33
   1	  35
   1	  37
   1	  38
   1	  39
   1	  40
   1	  42
   1	  46
   1	  51
   1	  52
   1	  53
   1	  56
   1	  57
   1	  59
   1	  61
   1	  63
   1	  67
   1	  68
   1	  69
   1	  71
   1	  72
   1	  73
   1	  75
   1	  81
   1	  82
   1	  84
   1	  85
   1	  89
   1	  92
   1	  93
   1	  96
   1	  97
   1	  99
   1	 101
   1	 102
   1	 104
   1	 108
   1	 109
   1	 111
   1	 115
   2	   4
   2	   6
   2	  10
   2	  12
   2	  14
   2	  15
   2	  16
   2	  18
   2	  19
   2	  21
   2	  22
   2	  24
   2	  25
   2	  26
   2	  27
   2	  31
   2	  33
   2	  34
   2	  35
   2	  37
   2	  38
   2	  39
   2	  40
   2	  42
   2	  45
   2	  48
   2	  49
   2	  50
   2	  52
   2	  53
   2	  54
   2	  56
   2	  58
   2	  61
   2	  62
   2	  63
   2	  64
   2	  65
   2	  66
   2	  69
   2	  72
   2	  73
   2	  74
   2	  76
   2	  78
   2	  79
   2	  81
   2	  82
   2	  84
   2	  86
   2	  89
   2	  93
   2	  94
   2	  98
   2	 100
   2	 102
   2	 105
   2	 106
   2	 107
   2	 108
   2	 109
   2	 111
   2	 113
   2	 114
   3	   6
   3	   9
   3	  11
   3	  13
   3	  15
   3	  16
   3	  20
   3	  21
   3	  22
   3	  24
   3	  25
   3	  26
   3	  33
   3	  35
   3	  36
   3	  41
   3	  42
   3	  46
   3	  49
   3	  54
   3	  58
   3	  60
   3	  61
   3	  62
   3	  65
   3	  66
   3	  67
   3	  69
   3	  70
   3	  77
   3	  78
   3	  79
   3	  81
   3	  83
   3	  84
   3	  86
   3	  88
   3	  89
   3	  90
   3	  91
   3	  96
   3	  99
   3	 100
   3	 102
   3	 103
   3	 104
   3	 105
   3	 106
   3	 107
   3	 110
   3	 112
   3	 113
   3	 114
   3	 116
   3	 118
   3	 119
   4	   5
   4	   7
   4	   8
   4	  12
   4	  15
   4	  17
   4	  18
   4	  20
   4	  21
   4	  22
   4	  26
   4	  27
   4	  28
   4	  29
   4	  33
   4	  38
   4	  41
   4	  42
   4	  43
   4	  44
   4	  46
   4	  48
   4	  49
   4	  52
   4	  53
   4	  54
   4	  55
   4	  59
   4	  64
   4	  66
   4	  69
   4	  74
   4	  75
   4	  76
   4	  77
   4	  78
   4	  79
   4	  80
   4	  82
   4	  83
   4	  85
   4	  86
   4	  87
   4	  92
   4	  94
   4	  96
   4	  97
   4	  98
   4	  99
   4	 101
   4	 102
   4	 104
   4	 105
   4	 107
   4	 110
   4	 111
   4	 112
   4	 116
   5	   6
   5	   8
   5	  11
   5	  15
   5	  16
   5	  18
   5	  19
   5	  20
   5	  22
   5	  27
   5	  31
   5	  32
   5	  33
   5	  34
   5	  37
   5	  40
   5	  43
   5	  44
   5	  45
   5	  46
   5	  47
   5	  48
   5	  49
   5	  51
   5	  52
   5	  59
   5	  60
   5	  64
   5	  66
   5	  67
   5	  68
   5	  70
   5	  71
   5	  75
   5	  76
   5	  78
   5	  82
   5	  84
   5	  85
   5	  93
   5	  97
   5	  99
   5	 100
   5	 102
   5	 104
   5	 106
   5	 109
   5	 110
   5	 111
   5	 112
   5	 115
   5	 116
   5	 119
   6	   7
   6	   8
   6	   9
   6	  11
   6	  20
   6	  21
   6	  22
   6	  24
   6	  32
   6	  34
   6	  35
   6	  37
   6	  41
   6	  42
   6	  49
   6	  50
   6	  51
   6	  53
   6	  55
   6	  57
   6	  58
   6	  61
   6	  62
   6	  63
   6	  64
   6	  66
   6	  67
   6	  73
   6	  74
   6	  75
   6	  76
   6	  77
   6	  81
   6	  82
   6	  83
   6	  84
   6	  87
   6	  89
   6	  90
   6	  91
   6	  92
   6	  93
   6	  94
   6	  97
   6	 100
   6	 104
   6	 105
   6	 106
   6	 107
   6	 113
   6	 115
   6	 118
   6	 119
   7	   8
   7	  13
   7	  15
   7	  22
   7	  24
   7	  25
   7	  26
   7	  29
   7	  31
   7	  32
   7	  34
   7	  37
   7	  39
   7	  42
   7	  49
   7	  51
   7	  52
   7	  53
   7	  55
   7	  58
   7	  59
   7	  60
   7	  61
   7	  63
   7	  65
   7	  66
   7	  68
   7	  69
   7	  71
   7	  72
   7	  73
   7	  74
   7	  76
   7	  77
   7	  78
   7	  80
   7	  81
   7	  84
   7	  88
   7	  90
   7	  94
   7	  96
   7	  97
   7	  98
   7	  99
   7	 101
   7	 106
   7	 107
   7	 109
   7	 110
   7	 111
   7	 117
   7	 118
   8	   9
   8	  10
   8	  14
   8	  15
   8	  20
   8	  23
   8	  24
   8	  30
   8	  31
   8	  32
   8	  34
   8	  36
   8	  39
   8	  40
   8	  41
   8	  42
   8	  43
   8	  44
   8	  46
   8	  48
   8	  53
   8	  58
   8	  59
   8	  62
   8	  64
   8	  65
   8	  70
   8	  71
   8	  75
   8	  78
   8	  79
   8	  80
   8	  82
   8	  83
   8	  84
   8	  85
   8	  86
   8	  91
   8	  96
   8	  97
   8	  98
   8	 100
   8	 106
   8	 107
   8	 108
   8	 109
   8	 111
   8	 112
   8	 113
   8	 114
   8	 115
   8	 116
   9	  11
   9	  13
   9	  16
   9	  19
   9	  20
   9	  22
   9	  26
   9	  27
   9	  29
   9	  31
   9	  32
   9	  34
   9	  35
   9	  37
   9	  39
   9	  40
   9	  41
   9	  42
   9	  43
   9	  44
   9	  45
   9	  47
   9	  49
   9	  52
   9	  53
   9	  58
   9	  59
   9	  62
   9	  63
   9	  64
   9	  68
   9	  70
   9	  71
   9	  72
   9	  78
   9	  80
   9	  81
   9	  83
   9	  85
   9	  86
   9	  87
   9	  89
   9	  90
   9	  91
   9	  92
   9	  93
   9	  94
   9	  95
   9	  97
   9	  98
   9	 100
   9	 101
   9	 103
   9	 104
   9	 106
   9	 107
   9	 111
   9	 112
   9	 113
   9	 114
   9	 117
  10	  12
  10	  13
  10	  14
  10	  15
  10	  16
  10	  18
  10	  19
  10	  21
  10	  23
  10	  24
  10	  27
  10	  28
  10	  31
  10	  32
  10	  33
  10	  34
  10	  38
  10	  41
  10	  50
  10	  55
  10	  58
  10	  60
  10	  62
  10	  64
  10	  65
  10	  66
  10	  67
  10	  71
  10	  72
  10	  73
  10	  75
  10	  78
  10	  80
  10	  81
  10	  82
  10	  83
  10	  87
  10	  88
  10	  89
  10	  91
  10	  93
  10	  94
  10	  96
  10	  97
  10	  99
  10	 100
  10	 101
  10	 102
  10	 103
  10	 105
  10	 106
  10	 108
  10	 111
  10	 118
  11	  13
  11	  15
  11	  19
  11	  21
  11	  24
  11	  26
  11	  28
  11	  30
  11	  32
  11	  33
  11	  35
  11	  37
  11	  38
  11	  40
  11	  43
  11	  47
  11	  48
  11	  50
  11	  51
  11	  52
  11	  53
  11	  56
  11	  57
  11	  58
  11	  59
  11	  60
  11	  67
  11	  69
  11	  74
  11	  75
  11	  78
  11	  79
  11	  80
  11	  81
  11	  82
  11	  83
  11	  84
  11	  85
  11	  86
  11	  87
  11	  88
  11	  90
  11	  91
  11	  94
  11	  95
  11	  96
  11	  98
  11	  99
  11	 103
  11	 105
  11	 106
  11	 107
  11	 108
  11	 110
  11	 112
  11	 113
  11	 115
  11	 116
  11	 118
  11	 119
  12	  14
  12	  18
  12	  20
  12	  23
  12	  25
  12	  26
  12	  27
  12	  30
  12	  31
  12	  32
  12	  33
  12	  35
  12	  36
  12	  38
  12	  43
  12	  49
  12	  50
  12	  51
  12	  55
  12	  56
  12	  57
  12	  58
  12	  59
  12	  62
  12	  65
  12	  68
  12	  69
  12	  71
  12	  73
  12	  78
  12	  80
  12	  85
  12	  86
  12	  88
  12	  89
  12	  92
  12	  93
  12	  96
  12	  97
  12	  98
  12	 101
  12	 102
  12	 104
  12	 105
  12	 109
  12	 110
  12	 112
  12	 113
  12	 114
  12	 116
  12	 118
  12	 119
  13	  14
  13	  15
  13	  16
  13	  20
  13	  21
  13	  22
  13	  24
  13	  28
  13	  29
  13	  30
  13	  38
  13	  39
  13	  41
  13	  43
  13	  44
  13	  46
  13	  48
  13	  50
  13	  52
  13	  53
  13	  55
  13	  57
  13	  58
  13	  59
  13	  60
  13	  62
  13	  66
  13	  67
  13	  68
  13	  70
  13	  72
  13	  73
  13	  74
  13	  77
  13	  80
  13	  81
  13	  86
  13	  87
  13	  91
  13	  93
  13	  95
  13	  96
  13	  97
  13	 100
  13	 102
  13	 103
  13	 104
  13	 107
  13	 110
  13	 111
  13	 112
  13	 117
  14	  15
  14	  22
  14	  23
  14	  25
  14	  27
  14	  28
  14	  30
  14	  31
  14	  33
  14	  34
  14	  42
  14	  45
  14	  46
  14	  53
  14	  54
  14	  55
  14	  56
  14	  57
  14	  58
  14	  63
  14	  65
  14	  66
  14	  67
  14	  68
  14	  69
  14	  70
  14	  77
  14	  78
  14	  79
  14	  80
  14	  81
  14	  84
  14	  85
  14	  86
  14	  88
  14	  89
  14	  90
  14	  91
  14	  93
  14	  94
  14	  96
  14	  97
  14	  98
  14	 100
  14	 101
  14	 103
  14	 105
  14	 107
  14	 108
  14	 111
  14	 115
  14	 116
  14	 118
  14	 119
  15	  24
  15	  25
  15	  26
  15	  28
  15	  32
  15	  38
  15	  39
  15	  40
  15	  41
  15	  42
  15	  44
  15	  45
  15	  46
  15	  48
  15	  52
  15	  54
  15	  56
  15	  57
  15	  58
  15	  65
  15	  67
  15	  68
  15	  69
  15	  70
  15	  71
  15	  74
  15	  75
  15	  77
  15	  78
  15	  80
  15	  81
  15	  82
  15	  84
  15	  85
  15	  86
  15	  89
  15	  90
  15	  91
  15	  94
  15	  96
  15	  97
  15	 100
  15	 106
  15	 107
  15	 108
  15	 110
  15	 111
  15	 115
  15	 117
  16	  17
  16	  18
  16	  20
  16	  21
  16	  23
  16	  24
  16	  25
  16	  30
  16	  31
  16	  32
  16	  34
  16	  37
  16	  39
  16	  40
  16	  41
  16	  42
  16	  43
  16	  46
  16	  47
  16	  51
  16	  53
  16	  54
  16	  57
  16	  62
  16	  63
  16	  64
  16	  65
  16	  68
  16	  69
  16	  70
  16	  74
  16	  77
  16	  78
  16	  80
  16	  82
  16	  84
  16	  85
  16	  86
  16	  87
  16	  88
  16	  89
  16	  91
  16	  92
  16	  93
  16	  94
  16	  95
  16	  99
  16	 100
  16	 101
  16	 105
  16	 106
  16	 109
  16	 110
  16	 112
  16	 114
  16	 117
  16	 118
  16	 119
  17	  18
  17	  23
  17	  24
  17	  25
  17	  26
  17	  33
  17	  34
  17	  39
  17	  43
  17	  45
  17	  47
  17	  48
  17	  49
  17	  51
  17	  53
  17	  54
  17	  55
  17	  58
  17	  59
  17	  60
  17	  61
  17	  62
  17	  67
  17	  68
  17	  69
  17	  70
  17	  74
  17	  78
  17	  83
  17	  84
  17	  85
  17	  86
  17	  88
  17	  90
  17	  95
  17	  98
  17	  99
  17	 100
  17	 103
  17	 105
  17	 107
  17	 108
  17	 109
  17	 110
  17	 111
  17	 113
  17	 114
  17	 116
  17	 117
  18	  20
  18	  22
  18	  24
  18	  30
  18	  31
  18	  33
  18	  37
  18	  40
  18	  42
  18	  43
  18	  44
  18	  46
  18	  47
  18	  48
  18	  54
  18	  57
  18	  62
  18	  66
  18	  67
  18	  68
  18	  69
  18	  71
  18	  72
  18	  74
  18	  77
  18	  80
  18	  82
  18	  83
  18	  85
  18	  86
  18	  88
  18	  92
  18	  93
  18	  95
  18	 100
  18	 103
  18	 104
  18	 105
  18	 109
  18	 112
  18	 114
  18	 115
  18	 117
  18	 118
  18	 119
  19	  24
  19	  25
  19	  26
  19	  27
  19	  28
  19	  31
  19	  34
  19	  35
  19	  37
  19	  38
  19	  41
  19	  44
  19	  45
  19	  48
  19	  49
  19	  50
  19	  54
  19	  55
  19	  56
  19	  61
  19	  62
  19	  64
  19	  70
  19	  72
  19	  74
  19	  75
  19	  76
  19	  80
  19	  82
  19	  83
  19	  84
  19	  90
  19	  92
  19	  95
  19	  97
  19	  98
  19	 101
  19	 103
  19	 104
  19	 106
  19	 108
  19	 109
  19	 110
  19	 113
  19	 114
  19	 115
  19	 117
  19	 118
  19	 119
  20	  21
  20	  22
  20	  24
  20	  27
  20	  33
  20	  38
  20	  39
  20	  41
  20	  45
  20	  46
  20	  47
  20	  48
  20	  49
  20	  50
  20	  51
  20	  56
  20	  57
  20	  58
  20	  59
  20	  61
  20	  62
  20	  63
  20	  67
  20	  70
  20	  71
  20	  75
  20	  76
  20	  81
  20	  83
  20	  84
  20	  88
  20	  89
  20	  91
  20	  92
  20	  93
  20	  95
  20	  96
  20	  97
  20	  98
  20	 100
  20	 101
  20	 102
  20	 104
  20	 107
  20	 108
  20	 110
  20	 115
  20	 116
  20	 118
  20	 119
  21	  22
  21	  23
  21	  27
  21	  28
  21	  32
  21	  35
  21	  38
  21	  39
  21	  40
  21	  41
  21	  42
  21	  43
  21	  44
  21	  45
  21	  46
  21	  48
  21	  49
  21	  50
  21	  51
  21	  52
  21	  53
  21	  55
  21	  57
  21	  59
  21	  62
  21	  71
  21	  73
  21	  78
  21	  79
  21	  83
  21	  85
  21	  87
  21	  90
  21	  94
  21	  96
  21	  97
  21	  98
  21	 102
  21	 105
  21	 106
  21	 108
  21	 110
  21	 111
  21	 112
  21	 113
  21	 114
  21	 116
  21	 117
  21	 119
  22	  23
  22	  26
  22	  27
  22	  29
  22	  31
  22	  32
  22	  34
  22	  37
  22	  38
  22	  39
  22	  41
  22	  43
  22	  44
  22	  45
  22	  46
  22	  49
  22	  53
  22	  55
  22	  58
  22	  60
  22	  62
  22	  63
  22	  65
  22	  67
  22	  69
  22	  70
  22	  72
  22	  73
  22	  75
  22	  79
  22	  80
  22	  82
  22	  83
  22	  84
  22	  85
  22	  86
  22	  88
  22	  89
  22	  91
  22	  92
  22	  93
  22	  94
  22	  95
  22	  96
  22	  97
  22	 102
  22	 103
  22	 105
  22	 110
  22	 111
  22	 112
  22	 115
  22	 116
  22	 119
  23	  24
  23	  25
  23	  27
  23	  28
  23	  30
  23	  37
  23	  38
  23	  41
  23	  42
  23	  43
  23	  44
  23	  46
  23	  47
  23	  48
  23	  51
  23	  52
  23	  53
  23	  56
  23	  60
  23	  61
  23	  62
  23	  63
  23	  64
  23	  66
  23	  69
  23	  71
  23	  72
  23	  73
  23	  74
  23	  75
  23	  76
  23	  77
  23	  81
  23	  82
  23	  83
  23	  84
  23	  85
  23	  88
  23	  89
  23	  91
  23	  92
  23	  93
  23	  94
  23	  95
  23	  98
  23	 101
  23	 102
  23	 104
  23	 106
  23	 108
  23	 111
  23	 112
  23	 115
  23	 119
  24	  25
  24	  26
  24	  27
  24	  28
  24	  29
  24	  30
  24	  34
  24	  36
  24	  37
  24	  38
  24	  39
  24	  40
  24	  41
  24	  42
  24	  43
  24	  44
  24	  47
  24	  48
  24	  49
  24	  50
  24	  51
  24	  54
  24	  57
  24	  61
  24	  63
  24	  65
  24	  67
  24	  69
  24	  71
  24	  72
  24	  73
  24	  74
  24	  75
  24	  78
  24	  79
  24	  81
  24	  82
  24	  84
  24	  85
  24	  88
  24	  90
  24	  91
  24	  92
  24	  94
  24	  95
  24	  99
  24	 101
  24	 103
  24	 109
  24	 110
  24	 112
  24	 115
  24	 117
  24	 119
  25	  26
  25	  31
  25	  36
  25	  37
  25	  38
  25	  40
  25	  41
  25	  44
  25	  46
  25	  50
  25	  52
  25	  53
  25	  54
  25	  57
  25	  60
  25	  61
  25	  63
  25	  66
  25	  73
  25	  74
  25	  76
  25	  78
  25	  81
  25	  83
  25	  84
  25	  86
  25	  87
  25	  91
  25	  93
  25	  94
  25	  98
  25	 105
  25	 107
  25	 108
  25	 110
  25	 112
  25	 114
  25	 116
  26	  28
  26	  29
  26	  31
  26	  32
  26	  35
  26	  38
  26	  40
  26	  48
  26	  51
  26	  53
  26	  54
  26	  55
  26	  58
  26	  61
  26	  62
  26	  63
  26	  67
  26	  68
  26	  72
  26	  74
  26	  75
  26	  79
  26	  81
  26	  82
  26	  86
  26	  89
  26	  90
  26	  91
  26	  93
  26	  96
  26	  97
  26	 101
  26	 106
  26	 107
  26	 108
  26	 109
  26	 110
  26	 112
  26	 114
  26	 116
  26	 117
  26	 118
  27	  28
  27	  29
  27	  30
  27	  31
  27	  32
  27	  33
  27	  34
  27	  35
  27	  36
  27	  38
  27	  39
  27	  40
  27	  41
  27	  42
  27	  45
  27	  47
  27	  48
  27	  51
  27	  57
  27	  58
  27	  59
  27	  61
  27	  62
  27	  63
  27	  64
  27	  65
  27	  66
  27	  67
  27	  69
  27	  71
  27	  74
  27	  75
  27	  79
  27	  80
  27	  81
  27	  83
  27	  84
  27	  85
  27	  86
  27	  87
  27	  90
  27	  92
  27	  93
  27	  94
  27	  95
  27	  96
  27	 103
  27	 105
  27	 107
  27	 109
  27	 111
  27	 112
  27	 113
  27	 115
  27	 116
  27	 117
  28	  29
  28	  30
  28	  34
  28	  35
  28	  37
  28	  40
  28	  42
  28	  43
  28	  44
  28	  45
  28	  46
  28	  49
  28	  51
  28	  52
  28	  53
  28	  54
  28	  55
  28	  56
  28	  57
  28	  61
  28	  62
  28	  64
  28	  67
  28	  68
  28	  69
  28	  71
  28	  72
  28	  73
  28	  74
  28	  76
  28	  78
  28	  79
  28	  81
  28	  83
  28	  84
  28	  88
  28	  91
  28	  92
  28	  93
  28	  94
  28	  96
  28	  97
  28	  98
  28	 103
  28	 104
  28	 106
  28	 107
  28	 108
  28	 109
  28	 110
  28	 111
  28	 112
  28	 117
  28	 119
  29	  30
  29	  32
  29	  33
  29	  34
  29	  35
  29	  36
  29	  37
  29	  38
  29	  40
  29	  42
  29	  43
  29	  46
  29	  47
  29	  48
  29	  50
  29	  51
  29	  53
  29	  54
  29	  55
  29	  62
  29	  64
  29	  67
  29	  71
  29	  72
  29	  73
  29	  75
  29	  77
  29	  79
  29	  81
  29	  82
  29	  83
  29	  85
  29	  86
  29	  91
  29	  93
  29	  97
  29	  98
  29	  99
  29	 100
  29	 102
  29	 104
  29	 108
  29	 109
  29	 112
  29	 113
  29	 115
  29	 118
  30	  31
  30	  32
  30	  33
  30	  34
  30	  35
  30	  39
  30	  40
  30	  42
  30	  47
  30	  48
  30	  49
  30	  50
  30	  52
  30	  54
  30	  57
  30	  59
  30	  60
  30	  61
  30	  65
  30	  67
  30	  68
  30	  70
  30	  71
  30	  72
  30	  73
  30	  74
  30	  75
  30	  78
  30	  80
  30	  81
  30	  84
  30	  86
  30	  87
  30	  89
  30	  92
  30	  94
  30	  99
  30	 102
  30	 103
  30	 104
  30	 106
  30	 107
  30	 108
  30	 109
  30	 110
  30	 111
  30	 114
  30	 116
  30	 117
  31	  33
  31	  34
  31	  35
  31	  39
  31	  42
  31	  45
  31	  46
  31	  48
  31	  50
  31	  53
  31	  54
  31	  55
  31	  57
  31	  62
  31	  63
  31	  64
  31	  65
  31	  66
  31	  69
  31	  73
  31	  74
  31	  76
  31	  79
  31	  80
  31	  82
  31	  83
  31	  87
  31	  88
  31	  90
  31	  91
  31	  92
  31	  93
  31	  95
  31	  96
  31	  97
  31	  98
  31	 100
  31	 101
  31	 105
  31	 106
  31	 107
  31	 108
  31	 112
  31	 113
  31	 118
  31	 119
  32	  33
  32	  35
  32	  36
  32	  37
  32	  38
  32	  40
  32	  41
  32	  45
  32	  48
  32	  50
  32	  51
  32	  52
  32	  55
  32	  56
  32	  59
  32	  60
  32	  61
  32	  65
  32	  71
  32	  73
  32	  75
  32	  77
  32	  78
  32	  79
  32	  80
  32	  81
  32	  86
  32	  89
  32	  90
  32	  91
  32	  92
  32	  94
  32	  98
  32	 100
  32	 103
  32	 104
  32	 108
  32	 109
  32	 112
  32	 115
  32	 116
  32	 117
  32	 119
  33	  34
  33	  37
  33	  38
  33	  39
  33	  40
  33	  42
  33	  44
  33	  46
  33	  50
  33	  55
  33	  57
  33	  58
  33	  61
  33	  62
  33	  63
  33	  64
  33	  67
  33	  71
  33	  72
  33	  73
  33	  75
  33	  77
  33	  78
  33	  82
  33	  83
  33	  84
  33	  88
  33	  92
  33	  93
  33	  96
  33	  99
  33	 100
  33	 101
  33	 103
  33	 105
  33	 106
  33	 108
  33	 109
  33	 110
  33	 111
  33	 112
  33	 113
  33	 114
  33	 116
  33	 117
  33	 119
  34	  39
  34	  40
  34	  41
  34	  42
  34	  43
  34	  46
  34	  47
  34	  48
  34	  55
  34	  57
  34	  58
  34	  59
  34	  61
  34	  62
  34	  65
  34	  70
  34	  71
  34	  72
  34	  73
  34	  74
  34	  78
  34	  79
  34	  80
  34	  83
  34	  86
  34	  88
  34	  90
  34	  91
  34	  93
  34	  95
  34	  99
  34	 100
  34	 101
  34	 105
  34	 108
  34	 111
  34	 112
  34	 113
  34	 116
  34	 118
  35	  37
  35	  38
  35	  43
  35	  44
  35	  46
  35	  47
  35	  48
  35	  49
  35	  50
  35	  54
  35	  55
  35	  58
  35	  59
  35	  63
  35	  64
  35	  66
  35	  70
  35	  76
  35	  77
  35	  78
  35	  79
  35	  80
  35	  81
  35	  83
  35	  84
  35	  87
  35	  88
  35	  89
  35	  92
  35	  95
  35	  97
  35	  99
  35	 100
  35	 101
  35	 102
  35	 105
  35	 106
  35	 107
  35	 108
  35	 110
  35	 112
  35	 116
  35	 117
  35	 119
  36	  38
  36	  39
  36	  40
  36	  41
  36	  42
  36	  45
  36	  46
  36	  47
  36	  48
  36	  49
  36	  52
  36	  56
  36	  59
  36	  66
  36	  67
  36	  68
  36	  69
  36	  70
  36	  72
  36	  73
  36	  74
  36	  75
  36	  76
  36	  79
  36	  82
  36	  84
  36	  85
  36	  92
  36	  95
  36	  96
  36	  98
  36	  99
  36	 101
  36	 104
  36	 105
  36	 106
  36	 108
  36	 111
  36	 112
  36	 115
  36	 116
  36	 117
  36	 118
  36	 119
  37	  42
  37	  43
  37	  44
  37	  46
  37	  47
  37	  49
  37	  51
  37	  52
  37	  54
  37	  57
  37	  60
  37	  63
  37	  69
  37	  70
  37	  71
  37	  73
  37	  74
  37	  75
  37	  76
  37	  78
  37	  79
  37	  80
  37	  81
  37	  82
  37	  83
  37	  86
  37	  87
  37	  89
  37	  90
  37	  93
  37	  95
  37	  96
  37	  97
  37	  99
  37	 104
  37	 107
  37	 111
  37	 112
  37	 113
  37	 114
  37	 116
  37	 117
  37	 119
  38	  39
  38	  42
  38	  44
  38	  46
  38	  51
  38	  53
  38	  54
  38	  59
  38	  62
  38	  63
  38	  64
  38	  65
  38	  66
  38	  67
  38	  68
  38	  69
  38	  70
  38	  73
  38	  74
  38	  77
  38	  80
  38	  82
  38	  83
  38	  85
  38	  86
  38	  87
  38	  88
  38	  89
  38	  91
  38	  92
  38	  96
  38	  98
  38	  99
  38	 100
  38	 101
  38	 102
  38	 104
  38	 107
  38	 108
  38	 109
  38	 110
  38	 111
  38	 113
  38	 114
  38	 115
  38	 116
  38	 118
  38	 119
  39	  42
  39	  43
  39	  47
  39	  48
  39	  49
  39	  50
  39	  51
  39	  52
  39	  53
  39	  55
  39	  57
  39	  58
  39	  60
  39	  61
  39	  62
  39	  66
  39	  73
  39	  74
  39	  75
  39	  76
  39	  78
  39	  79
  39	  82
  39	  83
  39	  84
  39	  87
  39	  88
  39	  92
  39	  97
  39	  98
  39	 100
  39	 101
  39	 102
  39	 106
  39	 107
  39	 109
  39	 111
  39	 112
  39	 114
  39	 115
  39	 116
  39	 117
  39	 118
  39	 119
  40	  41
  40	  44
  40	  46
  40	  48
  40	  49
  40	  51
  40	  52
  40	  53
  40	  55
  40	  56
  40	  57
  40	  58
  40	  60
  40	  61
  40	  62
  40	  63
  40	  69
  40	  70
  40	  72
  40	  74
  40	  77
  40	  82
  40	  83
  40	  85
  40	  89
  40	  90
  40	  91
  40	  92
  40	  94
  40	  95
  40	  98
  40	 101
  40	 102
  40	 104
  40	 105
  40	 106
  40	 109
  40	 111
  40	 112
  40	 113
  40	 115
  40	 116
  40	 117
  41	  44
  41	  46
  41	  48
  41	  54
  41	  58
  41	  59
  41	  60
  41	  62
  41	  63
  41	  68
  41	  70
  41	  71
  41	  72
  41	  73
  41	  74
  41	  75
  41	  77
  41	  78
  41	  80
  41	  82
  41	  83
  41	  87
  41	  93
  41	  94
  41	  95
  41	  96
  41	  97
  41	  98
  41	 100
  41	 101
  41	 103
  41	 104
  41	 105
  41	 108
  41	 110
  41	 112
  41	 113
  41	 118
  41	 119
  42	  43
  42	  45
  42	  46
  42	  49
  42	  52
  42	  54
  42	  55
  42	  56
  42	  57
  42	  60
  42	  62
  42	  64
  42	  65
  42	  66
  42	  68
  42	  69
  42	  76
  42	  78
  42	  79
  42	  80
  42	  82
  42	  83
  42	  84
  42	  86
  42	  87
  42	  89
  42	  91
  42	  93
  42	  97
  42	  99
  42	 101
  42	 103
  42	 108
  42	 112
  42	 113
  42	 117
  42	 119
  43	  44
  43	  45
  43	  46
  43	  48
  43	  50
  43	  51
  43	  52
  43	  53
  43	  54
  43	  55
  43	  57
  43	  58
  43	  59
  43	  60
  43	  62
  43	  63
  43	  66
  43	  72
  43	  74
  43	  79
  43	  82
  43	  84
  43	  89
  43	  90
  43	  91
  43	  93
  43	  94
  43	  95
  43	  96
  43	  98
  43	  99
  43	 100
  43	 102
  43	 103
  43	 104
  43	 105
  43	 107
  43	 110
  43	 111
  43	 112
  43	 114
  43	 115
  43	 116
  43	 117
  43	 118
  44	  45
  44	  47
  44	  48
  44	  49
  44	  54
  44	  55
  44	  56
  44	  57
  44	  58
  44	  59
  44	  60
  44	  61
  44	  63
  44	  64
  44	  65
  44	  66
  44	  70
  44	  71
  44	  73
  44	  74
  44	  76
  44	  77
  44	  78
  44	  80
  44	  82
  44	  83
  44	  85
  44	  86
  44	  88
  44	  90
  44	  91
  44	  96
  44	  98
  44	 101
  44	 103
  44	 106
  44	 107
  44	 109
  44	 110
  44	 111
  44	 113
  44	 114
  44	 118
  45	  46
  45	  49
  45	  52
  45	  55
  45	  57
  45	  59
  45	  60
  45	  62
  45	  63
  45	  64
  45	  65
  45	  68
  45	  69
  45	  70
  45	  73
  45	  78
  45	  80
  45	  82
  45	  90
  45	  94
  45	  95
  45	  98
  45	  99
  45	 103
  45	 105
  45	 107
  45	 111
  45	 112
  45	 114
  46	  50
  46	  51
  46	  52
  46	  57
  46	  59
  46	  60
  46	  63
  46	  67
  46	  68
  46	  70
  46	  71
  46	  73
  46	  75
  46	  78
  46	  79
  46	  80
  46	  81
  46	  85
  46	  88
  46	  91
  46	  92
  46	  93
  46	  94
  46	  96
  46	  97
  46	  98
  46	  99
  46	 103
  46	 104
  46	 105
  46	 106
  46	 107
  46	 108
  46	 109
  46	 110
  46	 111
  46	 113
  46	 114
  46	 116
  46	 117
  46	 119
  47	  50
  47	  51
  47	  59
  47	  60
  47	  62
  47	  63
  47	  64
  47	  65
  47	  67
  47	  68
  47	  69
  47	  72
  47	  74
  47	  76
  47	  78
  47	  79
  47	  80
  47	  81
  47	  82
  47	  83
  47	  85
  47	  86
  47	  87
  47	  92
  47	  94
  47	  95
  47	  96
  47	 103
  47	 104
  47	 105
  47	 108
  47	 110
  47	 112
  47	 115
  47	 117
  48	  49
  48	  50
  48	  51
  48	  53
  48	  55
  48	  57
  48	  59
  48	  68
  48	  71
  48	  72
  48	  74
  48	  76
  48	  77
  48	  78
  48	  79
  48	  80
  48	  81
  48	  82
  48	  83
  48	  86
  48	  87
  48	  89
  48	  91
  48	  93
  48	  99
  48	 100
  48	 101
  48	 102
  48	 103
  48	 104
  48	 107
  48	 110
  48	 113
  48	 117
  48	 119
  49	  52
  49	  56
  49	  59
  49	  61
  49	  62
  49	  64
  49	  65
  49	  66
  49	  67
  49	  68
  49	  69
  49	  74
  49	  75
  49	  76
  49	  77
  49	  78
  49	  81
  49	  83
  49	  86
  49	  89
  49	  90
  49	  92
  49	  93
  49	  97
  49	 100
  49	 101
  49	 103
  49	 105
  49	 107
  49	 111
  49	 113
  49	 116
  49	 117
  50	  53
  50	  54
  50	  56
  50	  62
  50	  63
  50	  64
  50	  65
  50	  66
  50	  68
  50	  71
  50	  72
  50	  75
  50	  76
  50	  78
  50	  79
  50	  82
  50	  85
  50	  86
  50	  87
  50	  88
  50	  90
  50	  92
  50	  93
  50	  96
  50	  97
  50	  99
  50	 101
  50	 104
  50	 105
  50	 106
  50	 114
  50	 115
  50	 118
  51	  52
  51	  53
  51	  55
  51	  56
  51	  57
  51	  58
  51	  59
  51	  60
  51	  62
  51	  68
  51	  69
  51	  71
  51	  72
  51	  73
  51	  76
  51	  79
  51	  81
  51	  85
  51	  92
  51	  93
  51	  94
  51	  96
  51	  97
  51	  99
  51	 101
  51	 105
  51	 109
  51	 111
  51	 113
  51	 116
  51	 118
  51	 119
  52	  55
  52	  58
  52	  59
  52	  60
  52	  63
  52	  64
  52	  66
  52	  67
  52	  68
  52	  72
  52	  74
  52	  77
  52	  78
  52	  79
  52	  80
  52	  81
  52	  82
  52	  83
  52	  85
  52	  87
  52	  88
  52	  89
  52	  90
  52	  94
  52	  96
  52	 101
  52	 102
  52	 104
  52	 108
  52	 109
  52	 110
  52	 112
  52	 114
  52	 117
  52	 118
  53	  55
  53	  59
  53	  61
  53	  62
  53	  64
  53	  70
  53	  73
  53	  74
  53	  75
  53	  78
  53	  79
  53	  83
  53	  86
  53	  87
  53	  88
  53	  92
  53	  93
  53	  99
  53	 101
  53	 104
  53	 105
  53	 106
  53	 107
  53	 109
  53	 110
  53	 111
  53	 112
  53	 113
  53	 116
  53	 117
  53	 119
  54	  55
  54	  57
  54	  60
  54	  62
  54	  64
  54	  66
  54	  67
  54	  68
  54	  71
  54	  72
  54	  74
  54	  76
  54	  77
  54	  80
  54	  82
  54	  84
  54	  86
  54	  89
  54	  91
  54	  92
  54	  93
  54	  94
  54	  95
  54	  97
  54	  98
  54	 100
  54	 101
  54	 103
  54	 104
  54	 107
  54	 108
  54	 111
  54	 112
  54	 113
  54	 114
  54	 118
  54	 119
  55	  57
  55	  60
  55	  61
  55	  63
  55	  64
  55	  68
  55	  70
  55	  71
  55	  72
  55	  74
  55	  76
  55	  77
  55	  79
  55	  82
  55	  84
  55	  86
  55	  87
  55	  90
  55	  95
  55	  96
  55	 102
  55	 103
  55	 104
  55	 106
  55	 107
  55	 108
  55	 109
  55	 111
  55	 113
  55	 114
  55	 117
  56	  57
  56	  63
  56	  65
  56	  66
  56	  70
  56	  71
  56	  72
  56	  73
  56	  74
  56	  77
  56	  79
  56	  80
  56	  83
  56	  84
  56	  85
  56	  87
  56	  89
  56	  95
  56	  98
  56	 100
  56	 103
  56	 106
  56	 108
  56	 110
  56	 113
  56	 116
  56	 118
  57	  58
  57	  59
  57	  61
  57	  62
  57	  71
  57	  73
  57	  76
  57	  77
  57	  82
  57	  83
  57	  90
  57	  92
  57	  93
  57	  94
  57	  98
  57	 100
  57	 104
  57	 106
  57	 107
  57	 108
  57	 110
  57	 112
  57	 118
  57	 119
  58	  61
  58	  63
  58	  64
  58	  68
  58	  70
  58	  71
  58	  72
  58	  74
  58	  76
  58	  77
  58	  78
  58	  79
  58	  82
  58	  84
  58	  85
  58	  86
  58	  91
  58	  92
  58	  95
  58	  96
  58	  97
  58	  98
  58	  99
  58	 101
  58	 102
  58	 104
  58	 105
  58	 106
  58	 107
  58	 112
  58	 113
  58	 114
  58	 116
  58	 117
  58	 118
  59	  61
  59	  62
  59	  63
  59	  69
  59	  70
  59	  73
  59	  74
  59	  80
  59	  81
  59	  82
  59	  83
  59	  87
  59	  88
  59	  89
  59	  90
  59	  92
  59	  94
  59	  97
  59	  99
  59	 101
  59	 104
  59	 105
  59	 106
  59	 107
  59	 109
  59	 110
  59	 111
  59	 113
  59	 114
  59	 117
  59	 119
  60	  64
  60	  67
  60	  68
  60	  69
  60	  70
  60	  72
  60	  74
  60	  75
  60	  76
  60	  78
  60	  79
  60	  81
  60	  83
  60	  84
  60	  87
  60	  88
  60	  92
  60	  93
  60	  98
  60	 102
  60	 103
  60	 104
  60	 105
  60	 106
  60	 109
  60	 110
  60	 111
  60	 115
  60	 119
  61	  64
  61	  65
  61	  66
  61	  68
  61	  70
  61	  71
  61	  72
  61	  75
  61	  76
  61	  77
  61	  79
  61	  80
  61	  81
  61	  82
  61	  84
  61	  85
  61	  88
  61	  91
  61	  92
  61	  93
  61	  94
  61	 100
  61	 102
  61	 103
  61	 104
  61	 106
  61	 107
  61	 110
  61	 112
  61	 113
  61	 114
  62	  63
  62	  65
  62	  66
  62	  68
  62	  69
  62	  70
  62	  72
  62	  76
  62	  77
  62	  78
  62	  79
  62	  81
  62	  82
  62	  83
  62	  84
  62	  86
  62	  87
  62	  88
  62	  93
  62	  94
  62	  96
  62	  97
  62	 100
  62	 101
  62	 105
  62	 112
  62	 113
  62	 115
  62	 118
  62	 119
  63	  64
  63	  66
  63	  69
  63	  72
  63	  73
  63	  76
  63	  77
  63	  78
  63	  81
  63	  82
  63	  84
  63	  85
  63	  91
  63	  93
  63	  94
  63	  96
  63	  97
  63	  98
  63	  99
  63	 109
  63	 111
  63	 114
  63	 115
  63	 116
  63	 117
  64	  67
  64	  69
  64	  70
  64	  71
  64	  75
  64	  76
  64	  81
  64	  82
  64	  83
  64	  84
  64	  91
  64	  93
  64	 100
  64	 101
  64	 102
  64	 103
  64	 105
  64	 106
  64	 108
  64	 109
  64	 110
  64	 111
  64	 113
  64	 114
  64	 115
  64	 116
  65	  68
  65	  70
  65	  73
  65	  77
  65	  78
  65	  86
  65	  88
  65	  89
  65	  90
  65	  91
  65	  92
  65	  93
  65	  94
  65	  97
  65	  98
  65	  99
  65	 101
  65	 102
  65	 104
  65	 107
  65	 108
  65	 109
  65	 111
  65	 114
  65	 117
  65	 119
  66	  68
  66	  70
  66	  75
  66	  76
  66	  77
  66	  79
  66	  81
  66	  83
  66	  84
  66	  85
  66	  87
  66	  89
  66	  91
  66	  94
  66	  98
  66	 100
  66	 102
  66	 104
  66	 107
  66	 109
  66	 111
  66	 114
  66	 118
  67	  68
  67	  73
  67	  75
  67	  76
  67	  77
  67	  79
  67	  80
  67	  82
  67	  83
  67	  84
  67	  86
  67	  88
  67	  89
  67	  90
  67	  91
  67	  93
  67	  95
  67	  96
  67	  97
  67	  98
  67	 100
  67	 101
  67	 102
  67	 104
  67	 107
  67	 111
  67	 113
  67	 114
  67	 116
  67	 117
  68	  69
  68	  71
  68	  72
  68	  73
  68	  75
  68	  79
  68	  80
  68	  83
  68	  88
  68	  89
  68	  91
  68	  92
  68	  94
  68	  95
  68	  98
  68	  99
  68	 100
  68	 102
  68	 103
  68	 104
  68	 105
  68	 107
  68	 108
  68	 110
  68	 113
  68	 115
  68	 119
  69	  70
  69	  72
  69	  77
  69	  78
  69	  82
  69	  84
  69	  87
  69	  91
  69	  92
  69	  96
  69	  97
  69	  99
  69	 100
  69	 101
  69	 103
  69	 106
  69	 108
  69	 109
  69	 110
  69	 112
  69	 114
  69	 116
  69	 117
  70	  72
  70	  74
  70	  76
  70	  81
  70	  82
  70	  86
  70	  87
  70	  89
  70	  92
  70	  94
  70	  95
  70	  96
  70	  98
  70	  99
  70	 101
  70	 102
  70	 103
  70	 104
  70	 106
  70	 110
  70	 111
  70	 117
  70	 118
  71	  72
  71	  75
  71	  77
  71	  79
  71	  82
  71	  87
  71	  93
  71	  94
  71	  95
  71	  97
  71	  98
  71	  99
  71	 100
  71	 101
  71	 102
  71	 104
  71	 105
  71	 107
  71	 109
  71	 111
  71	 113
  71	 114
  71	 115
  71	 116
  71	 117
  71	 118
  72	  74
  72	  75
  72	  78
  72	  82
  72	  85
  72	  86
  72	  88
  72	  89
  72	  90
  72	  91
  72	  98
  72	 102
  72	 103
  72	 104
  72	 107
  72	 108
  72	 112
  72	 116
  72	 117
  72	 118
  73	  76
  73	  78
  73	  80
  73	  81
  73	  87
  73	  88
  73	  90
  73	  91
  73	  92
  73	  93
  73	  96
  73	  97
  73	  99
  73	 100
  73	 102
  73	 103
  73	 104
  73	 108
  73	 110
  73	 111
  73	 112
  73	 113
  73	 114
  73	 116
  73	 117
  73	 118
  73	 119
  74	  76
  74	  77
  74	  79
  74	  80
  74	  81
  74	  82
  74	  85
  74	  86
  74	  88
  74	  89
  74	  92
  74	  93
  74	  94
  74	  95
  74	  96
  74	 100
  74	 101
  74	 102
  74	 103
  74	 106
  74	 107
  74	 109
  74	 111
  74	 112
  74	 113
  74	 114
  74	 115
  74	 116
  74	 117
  74	 119
  75	  77
  75	  78
  75	  79
  75	  82
  75	  84
  75	  85
  75	  89
  75	  90
  75	  91
  75	  94
  75	  96
  75	 101
  75	 103
  75	 104
  75	 105
  75	 106
  75	 109
  75	 112
  75	 114
  75	 116
  76	  79
  76	  80
  76	  83
  76	  85
  76	  86
  76	  91
  76	  97
  76	  99
  76	 100
  76	 101
  76	 102
  76	 103
  76	 111
  76	 114
  76	 117
  76	 119
  77	  78
  77	  80
  77	  82
  77	  84
  77	  88
  77	  90
  77	  92
  77	  93
  77	  95
  77	  98
  77	  99
  77	 100
  77	 101
  77	 103
  77	 106
  77	 109
  77	 110
  77	 111
  77	 114
  77	 116
  77	 118
  77	 119
  78	  79
  78	  80
  78	  81
  78	  82
  78	  87
  78	  89
  78	  93
  78	  94
  78	  95
  78	  98
  78	  99
  78	 101
  78	 106
  78	 110
  78	 114
  78	 117
  78	 118
  79	  80
  79	  81
  79	  82
  79	  84
  79	  87
  79	  88
  79	  89
  79	  90
  79	  91
  79	  93
  79	  94
  79	  95
  79	  96
  79	  99
  79	 100
  79	 104
  79	 109
  79	 112
  79	 114
  79	 115
  79	 116
  79	 117
  79	 118
  80	  81
  80	  82
  80	  83
  80	  84
  80	  86
  80	  89
  80	  91
  80	  92
  80	  94
  80	  95
  80	  96
  80	  97
  80	 101
  80	 102
  80	 103
  80	 108
  80	 110
  80	 111
  80	 113
  80	 114
  80	 118
  81	  83
  81	  85
  81	  88
  81	  89
  81	  91
  81	  94
  81	  95
  81	  96
  81	  97
  81	  98
  81	 100
  81	 101
  81	 103
  81	 104
  81	 105
  81	 108
  81	 110
  81	 111
  81	 112
  81	 113
  81	 115
  81	 118
  81	 119
  82	  85
  82	  86
  82	  88
  82	  90
  82	  91
  82	  93
  82	  95
  82	 100
  82	 103
  82	 106
  82	 108
  82	 109
  82	 110
  82	 111
  82	 112
  82	 113
  82	 119
  83	  86
  83	  87
  83	  88
  83	  95
  83	  99
  83	 103
  83	 104
  83	 108
  83	 110
  83	 111
  83	 117
  83	 118
  83	 119
  84	  88
  84	  89
  84	  90
  84	  91
  84	  93
  84	  98
  84	  99
  84	 100
  84	 101
  84	 103
  84	 104
  84	 110
  84	 111
  84	 112
  84	 113
  84	 116
  84	 117
  84	 118
  84	 119
  85	  88
  85	  92
  85	  93
  85	  94
  85	  96
  85	  97
  85	  99
  85	 101
  85	 103
  85	 104
  85	 105
  85	 106
  85	 108
  85	 110
  85	 112
  85	 116
  85	 117
  85	 119
  86	  89
  86	  91
  86	  92
  86	  94
  86	  96
  86	  97
  86	  99
  86	 102
  86	 105
  86	 107
  86	 108
  86	 109
  86	 112
  86	 116
  86	 117
  86	 118
  86	 119
  87	  92
  87	  94
  87	  97
  87	  99
  87	 100
  87	 101
  87	 105
  87	 108
  87	 110
  87	 114
  87	 116
  87	 119
  88	  90
  88	  93
  88	  94
  88	  97
  88	 101
  88	 102
  88	 104
  88	 105
  88	 106
  88	 108
  88	 110
  88	 111
  88	 112
  88	 116
  88	 118
  89	  91
  89	  92
  89	  95
  89	 100
  89	 107
  89	 108
  89	 109
  89	 111
  89	 113
  89	 115
  89	 116
  89	 117
  90	  92
  90	  96
  90	  97
  90	  98
  90	  99
  90	 100
  90	 101
  90	 105
  90	 107
  90	 110
  90	 114
  90	 116
  90	 118
  90	 119
  91	  92
  91	  93
  91	  94
  91	  95
  91	  96
  91	  98
  91	 100
  91	 102
  91	 103
  91	 104
  91	 106
  91	 107
  91	 109
  91	 110
  91	 112
  91	 114
  91	 115
  91	 117
  91	 119
  92	  93
  92	  94
  92	  96
  92	  97
  92	  98
  92	  99
  92	 100
  92	 102
  92	 103
  92	 107
  92	 108
  92	 109
  92	 110
  92	 111
  92	 113
  92	 118
  92	 119
  93	 104
  93	 107
  93	 109
  93	 111
  93	 113
  93	 114
  93	 116
  93	 118
  93	 119
  94	  99
  94	 101
  94	 102
  94	 105
  94	 106
  94	 107
  94	 109
  94	 110
  94	 111
  94	 114
  94	 115
  94	 116
  94	 118
  95	  97
  95	 100
  95	 101
  95	 104
  95	 105
  95	 106
  95	 108
  95	 111
  95	 114
  95	 115
  95	 116
  95	 118
  96	  98
  96	  99
  96	 101
  96	 102
  96	 104
  96	 107
  96	 108
  96	 110
  96	 112
  96	 115
  96	 116
  97	  98
  97	  99
  97	 101
  97	 103
  97	 104
  97	 105
  97	 106
  97	 108
  97	 109
  97	 110
  97	 118
  97	 119
  98	  99
  98	 100
  98	 104
  98	 105
  98	 106
  98	 107
  98	 108
  98	 110
  98	 111
  98	 113
  98	 114
  98	 116
  99	 102
  99	 104
  99	 107
  99	 108
  99	 110
  99	 111
  99	 112
  99	 115
  99	 117
  99	 119
 100	 103
 100	 105
 100	 108
 100	 113
 100	 114
 101	 107
 101	 109
 101	 118
 101	 119
 102	 103
 102	 107
 102	 111
 102	 112
 102	 115
 103	 104
 103	 105
 103	 106
 103	 107
 103	 109
 103	 110
 103	 111
 103	 112
 103	 114
 103	 115
 103	 116
 103	 118
 104	 106
 104	 107
 104	 108
 104	 112
 104	 113
 104	 114
 104	 115
 104	 116
 104	 118
 105	 106
 105	 107
 105	 117
 105	 118
 106	 107
 106	 110
 106	 111
 106	 112
 106	 113
 106	 114
 106	 116
 106	 117
 106	 118
 107	 108
 107	 109
 107	 113
 107	 114
 107	 117
 108	 110
 108	 112
 108	 116
 109	 111
 109	 112
 109	 115
 109	 117
 110	 111
 110	 112
 110	 113
 110	 116
 110	 117
 110	 119
 111	 112
 111	 113
 111	 115
 111	 118
 112	 113
 112	 114
 112	 117
 112	 118
 113	 114
 113	 116
 114	 116
 115	 117
 115	 119
 116	 117
 116	 118
 117	 119
;
